; benchmark generated from python API
(set-info :status unknown)
(declare-datatypes ((RealState 0)) (((RMk1 (rval1 Real)) (RMk2 (rval2 Real)))))
 (assert
 (forall ((|v9:0| Real) )(exists ((|v8:1_st| RealState) (val!1355 Real) )(forall ((|v7:2| Real) )(exists ((|v6:3_st| RealState) (val!1356 Real) )(forall ((|v5:4| Real) )(exists ((|v4:5_st| RealState) (val!1357 Real) )(forall ((|v3:6| Real) )(exists ((|v2:7_st| RealState) (val!1358 Real) )(forall ((|v1:8| Real) )(exists ((|v0:9_st| RealState) (val!1359 Real) )(let ((?x1150 (* 14.0 (rval2 |v4:5_st|))))
 (let (($x453 (and (<= (+ (+ (* 6.0 |v1:8|) (* 11.0 (rval2 |v0:9_st|))) ?x1150) 13.0) (<= (+ (+ (* 2.0 |v9:0|) (* 20.0 |v3:6|)) (* 17.0 |v5:4|)) 8.0))))
 (let (($x1184 (<= (+ (+ (* 18.0 |v7:2|) (* (- 2.0) |v5:4|)) (* 5.0 (rval2 |v0:9_st|))) 11.0)))
 (let ((?x680 (- 15.0)))
 (let ((?x670 (* 19.0 |v1:8|)))
 (let (($x1109 (<= (+ (+ (* 14.0 (rval2 |v6:3_st|)) (* (- 4.0) (rval2 |v0:9_st|))) ?x670) ?x680)))
 (let ((?x314 (- 1.0)))
 (let (($x414 (<= (+ (+ (* 5.0 |v5:4|) (* (- 9.0) (rval2 |v6:3_st|))) (* 18.0 |v7:2|)) ?x314)))
 (let (($x1072 (<= (+ (+ (* 6.0 |v5:4|) (* 0.0 |v7:2|)) (* (- 20.0) |v9:0|)) 4.0)))
 (let ((?x661 (+ (+ (* (- 19.0) (rval2 |v6:3_st|)) (* 7.0 |v3:6|)) (* (- 8.0) (rval2 |v6:3_st|)))))
 (let ((?x1018 (- 11.0)))
 (let ((?x782 (* 6.0 |v7:2|)))
 (let (($x842 (<= (+ (+ (* 20.0 (rval2 |v8:1_st|)) (* 12.0 (rval2 |v8:1_st|))) ?x782) ?x1018)))
 (let (($x972 (and (or (and $x842 (<= ?x661 18.0)) (and $x1072 $x414)) (and (and $x1109 $x1184) $x453))))
 (let ((?x1125 (+ (+ (* (- 19.0) |v1:8|) (* (- 2.0) (rval2 |v8:1_st|))) (* ?x680 |v7:2|))))
 (let ((?x1040 (- 2.0)))
 (let (($x1410 (<= (+ (+ (* 9.0 |v5:4|) (* 4.0 (rval2 |v0:9_st|))) (* (- 19.0) |v7:2|)) ?x1040)))
 (let ((?x73 (+ (+ (* (- 9.0) (rval2 |v8:1_st|)) (* (- 16.0) |v9:0|)) (* 0.0 (rval2 |v8:1_st|)))))
 (let (($x736 (<= (+ (+ (* 7.0 |v1:8|) (* 5.0 |v9:0|)) (* (- 10.0) (rval2 |v0:9_st|))) 11.0)))
 (let (($x101 (<= (+ (+ (* 16.0 (rval2 |v8:1_st|)) (* ?x680 |v1:8|)) (* 16.0 |v3:6|)) 15.0)))
 (let ((?x734 (rval2 |v2:7_st|)))
 (let ((?x1074 (* 11.0 ?x734)))
 (let (($x929 (or (<= (+ (+ (* 2.0 |v5:4|) (* 14.0 (rval2 |v8:1_st|))) ?x1074) 14.0) $x101)))
 (let ((?x634 (- 8.0)))
 (let ((?x1000 (* 3.0 |v9:0|)))
 (let (($x1308 (<= (+ (+ (* (- 17.0) |v1:8|) (* (- 5.0) (rval2 |v0:9_st|))) ?x1000) ?x634)))
 (let ((?x627 (- 20.0)))
 (let ((?x845 (+ (+ (* (- 10.0) (rval2 |v8:1_st|)) (* ?x1018 (rval2 |v0:9_st|))) (* (- 16.0) |v5:4|))))
 (let (($x1182 (or (and (and (<= ?x845 ?x627) $x1308) $x929) (or $x736 (and (<= ?x73 ?x1018) $x1410)))))
 (let ((?x619 (+ (+ (* 18.0 (rval2 |v6:3_st|)) (* ?x634 (rval2 |v0:9_st|))) (* 3.0 (rval2 |v8:1_st|)))))
 (let ((?x1159 (- 17.0)))
 (let (($x915 (<= (+ (+ (* 6.0 |v5:4|) (* 19.0 (rval2 |v0:9_st|))) (* 15.0 |v5:4|)) ?x1159)))
 (let ((?x575 (- 16.0)))
 (let (($x923 (<= (+ (+ (* 18.0 ?x734) (* (- 6.0) |v1:8|)) (* (- 5.0) ?x734)) ?x575)))
 (let (($x61 (<= (+ (+ (* (- 12.0) ?x734) (* (- 9.0) |v3:6|)) (* ?x1040 ?x734)) ?x627)))
 (let (($x602 (<= (+ (+ (* ?x680 |v1:8|) (* (- 10.0) |v9:0|)) (* ?x1018 (rval2 |v8:1_st|))) ?x1159)))
 (let ((?x913 (- 12.0)))
 (let ((?x359 (+ (+ (* ?x634 (rval2 |v0:9_st|)) (* ?x314 |v7:2|)) (* (- 6.0) (rval2 |v8:1_st|)))))
 (let ((?x548 (rval2 |v0:9_st|)))
 (let ((?x299 (* 2.0 ?x548)))
 (let (($x317 (<= (+ (+ (* (- 14.0) |v3:6|) (* ?x1040 |v9:0|)) (* (- 18.0) |v5:4|)) ?x1018)))
 (let (($x694 (or $x317 (<= (+ (+ (* 13.0 |v3:6|) (* (- 9.0) (rval2 |v8:1_st|))) ?x299) ?x314))))
 (let (($x1321 (or (or $x694 (or (<= ?x359 ?x913) $x602)) (or (and $x61 $x923) (and $x915 (<= ?x619 5.0))))))
 (let (($x945 (not (= |v0:9_st| (RMk1 val!1359)))))
 (let (($x729 (not (= |v2:7_st| (RMk1 val!1358)))))
 (let (($x655 (not (= |v4:5_st| (RMk1 val!1357)))))
 (let (($x501 (not (= |v6:3_st| (RMk1 val!1356)))))
 (let (($x699 (not (= |v8:1_st| (RMk1 val!1355)))))
 (and $x699 $x501 $x655 $x729 $x945 (and (or $x1321 $x1182) (and (<= ?x1125 2.0) $x972))))))))))))))))))))))))))))))))))))))))))))))))))))
 )
 )
 )
 )
 )
 )
 )
 )
 )
 )
(check-sat)
